100
433 383
936 886
827 777
965 915
843 793
385 335
436 386
542 492
699 649
471 421
412 362
77 27
740 690
109 59
813 763
976 926
590 540
476 426
222 172
786 736
261 211
418 368
617 567
479 429
832 782
580 530
912 862
173 123
117 67
185 135
979 929
852 802
72 22
108 58
119 69
217 167
443 393
506 456
61 11
92 42
279 229
423 373
471 421
969 919
834 784
587 537
248 198
374 324
365 315
420 370
463 413
576 526
141 91
1030 980
1006 956
923 873
912 862
220 170
1046 996
331 281
355 305
975 925
134 84
377 327
386 336
555 505
896 846
779 729
363 313
907 857
174 124
945 895
632 582
595 545
864 814
417 367
484 434
414 364
93 43
800 750
137 87
858 808
326 276
228 178
838 788
634 584
453 403
701 651
804 754
449 399
982 932
110 60
726 676
418 368
789 739
62 12
276 226
636 586
144 94
589 539
